start = 1;
limit = 6;
n = 14;
m=[|-1,6,2,-1,19,-1,18,3,-1,-1,17,20,-1,15,
|-1,-1,-1,10,18,15,-1,-1,17,3,-1,-1,17,-1,
|-1,-1,-1,-1,18,-1,7,-1,-1,-1,-1,0,-1,-1,
|-1,4,14,-1,11,7,-1,-1,20,2,-1,13,2,-1,
|11,0,0,-1,-1,8,-1,-1,20,-1,-1,-1,16,6,
|-1,11,-1,7,-1,-1,18,15,-1,-1,-1,18,-1,18,
|-1,-1,-1,-1,-1,-1,-1,10,13,-1,17,-1,1,-1,
|-1,-1,11,15,3,-1,-1,-1,-1,14,-1,18,-1,-1,
|-1,15,-1,-1,-1,-1,-1,6,-1,-1,-1,18,2,8,
|20,1,-1,16,12,-1,1,-1,11,-1,7,8,-1,14,
|4,-1,19,4,-1,20,-1,-1,-1,-1,-1,-1,-1,15,
|-1,5,-1,-1,-1,12,-1,-1,-1,3,7,-1,17,-1,
|-1,-1,-1,-1,-1,-1,-1,3,18,9,-1,-1,-1,-1,
|-1,-1,-1,-1,12,-1,-1,-1,-1,14,-1,11,19,-1,
|]
;